decision_x1=[0,4];
decision_x2=[0,4];
decision_x3=[0,4];
decision_x4=[0,4];
decision_x5=[0,4];
decision_x6=[0,4];
decision_x7=[0,4];
decision_x8=[0,4];
decision_x9=[0,4];
decision_x10=[0,4];
random_y1=[0,4];
random_y2=[0,4];
random_y3=[0,4];
random_y4=[0,4];
random_y5=[0,4];
random_y6=[0,4];
random_y7=[0,4];
random_y8=[0,4];
random_y9=[0,4];
random_y10=[0,4];
constraint_x2_x1=[
0,0,93|
0,1,86|
0,2,41|
0,3,45|
0,4,42|
1,0,94|
1,1,67|
1,2,72|
1,3,52|
1,4,18|
2,0,17|
2,1,11|
2,2,59|
2,3,28|
2,4,17|
3,0,94|
3,1,39|
3,2,29|
3,3,67|
3,4,54|
4,0,53|
4,1,46|
4,2,41|
4,3,30|
4,4,84|
];
constraint_x3_x2=[
0,0,56|
0,1,86|
0,2,59|
0,3,63|
0,4,43|
1,0,40|
1,1,35|
1,2,26|
1,3,28|
1,4,26|
2,0,27|
2,1,82|
2,2,99|
2,3,51|
2,4,64|
3,0,31|
3,1,4.9|
3,2,48|
3,3,47|
3,4,39|
4,0,63|
4,1,48|
4,2,32|
4,3,72|
4,4,99|
];
constraint_x4_x1=[
0,0,64|
0,1,41|
0,2,59|
0,3,57|
0,4,98|
1,0,57|
1,1,38|
1,2,3.7|
1,3,34|
1,4,10|
2,0,67|
2,1,92|
2,2,15|
2,3,63|
2,4,51|
3,0,81|
3,1,6.1|
3,2,29|
3,3,62|
3,4,53|
4,0,68|
4,1,17|
4,2,48|
4,3,35|
4,4,54|
];
constraint_x4_x3=[
0,0,93|
0,1,39|
0,2,77|
0,3,52|
0,4,21|
1,0,3.3|
1,1,82|
1,2,81|
1,3,78|
1,4,88|
2,0,19|
2,1,16|
2,2,29|
2,3,29|
2,4,95|
3,0,20|
3,1,25|
3,2,53|
3,3,4.8|
3,4,52|
4,0,62|
4,1,37|
4,2,66|
4,3,97|
4,4,73|
];
constraint_x5_x1=[
0,0,23|
0,1,64|
0,2,36|
0,3,28|
0,4,91|
1,0,82|
1,1,2|
1,2,37|
1,3,3.2|
1,4,33|
2,0,98|
2,1,70|
2,2,97|
2,3,51|
2,4,12|
3,0,7.6|
3,1,10|
3,2,93|
3,3,40|
3,4,16|
4,0,25|
4,1,91|
4,2,0.36|
4,3,98|
4,4,54|
];
constraint_x5_x2=[
0,0,56|
0,1,15|
0,2,9.6|
0,3,77|
0,4,79|
1,0,18|
1,1,24|
1,2,18|
1,3,86|
1,4,55|
2,0,51|
2,1,6.4|
2,2,12|
2,3,49|
2,4,28|
3,0,98|
3,1,11|
3,2,98|
3,3,9.3|
3,4,49|
4,0,82|
4,1,50|
4,2,66|
4,3,27|
4,4,5.6|
];
constraint_x6_x4=[
0,0,19|
0,1,95|
0,2,59|
0,3,40|
0,4,19|
1,0,15|
1,1,21|
1,2,61|
1,3,52|
1,4,70|
2,0,46|
2,1,84|
2,2,54|
2,3,72|
2,4,26|
3,0,93|
3,1,38|
3,2,16|
3,3,67|
3,4,21|
4,0,79|
4,1,90|
4,2,29|
4,3,18|
4,4,97|
];
constraint_x7_x1=[
0,0,54|
0,1,32|
0,2,63|
0,3,57|
0,4,21|
1,0,51|
1,1,54|
1,2,66|
1,3,96|
1,4,81|
2,0,42|
2,1,43|
2,2,69|
2,3,4.7|
2,4,1e+02|
3,0,92|
3,1,24|
3,2,18|
3,3,46|
3,4,48|
4,0,15|
4,1,98|
4,2,16|
4,3,34|
4,4,17|
];
constraint_x7_x2=[
0,0,61|
0,1,7.2|
0,2,94|
0,3,7.6|
0,4,12|
1,0,91|
1,1,95|
1,2,5.5|
1,3,17|
1,4,55|
2,0,11|
2,1,0.88|
2,2,21|
2,3,93|
2,4,65|
3,0,27|
3,1,42|
3,2,60|
3,3,56|
3,4,25|
4,0,84|
4,1,14|
4,2,11|
4,3,17|
4,4,47|
];
constraint_x7_x3=[
0,0,69|
0,1,65|
0,2,5.1|
0,3,2.4|
0,4,28|
1,0,39|
1,1,32|
1,2,92|
1,3,1.3|
1,4,59|
2,0,46|
2,1,37|
2,2,63|
2,3,91|
2,4,25|
3,0,64|
3,1,89|
3,2,37|
3,3,26|
3,4,50|
4,0,53|
4,1,27|
4,2,83|
4,3,18|
4,4,54|
];
constraint_x7_x4=[
0,0,48|
0,1,84|
0,2,73|
0,3,83|
0,4,51|
1,0,33|
1,1,20|
1,2,0.47|
1,3,52|
1,4,58|
2,0,78|
2,1,38|
2,2,45|
2,3,77|
2,4,73|
3,0,3.3|
3,1,58|
3,2,34|
3,3,13|
3,4,53|
4,0,54|
4,1,78|
4,2,38|
4,3,76|
4,4,90|
];
constraint_x7_x5=[
0,0,31|
0,1,31|
0,2,91|
0,3,47|
0,4,97|
1,0,35|
1,1,1.2|
1,2,97|
1,3,28|
1,4,36|
2,0,23|
2,1,76|
2,2,17|
2,3,34|
2,4,54|
3,0,1e+02|
3,1,16|
3,2,73|
3,3,31|
3,4,48|
4,0,25|
4,1,59|
4,2,55|
4,3,49|
4,4,92|
];
constraint_x7_x6=[
0,0,23|
0,1,25|
0,2,78|
0,3,6.8|
0,4,90|
1,0,5.1|
1,1,33|
1,2,15|
1,3,1e+02|
1,4,41|
2,0,70|
2,1,84|
2,2,11|
2,3,50|
2,4,58|
3,0,45|
3,1,14|
3,2,63|
3,3,42|
3,4,97|
4,0,41|
4,1,62|
4,2,28|
4,3,7.2|
4,4,37|
];
constraint_x8_x2=[
0,0,95|
0,1,18|
0,2,21|
0,3,33|
0,4,4|
1,0,33|
1,1,2.3|
1,2,33|
1,3,82|
1,4,7.7|
2,0,79|
2,1,99|
2,2,62|
2,3,25|
2,4,91|
3,0,48|
3,1,14|
3,2,90|
3,3,65|
3,4,20|
4,0,68|
4,1,68|
4,2,94|
4,3,63|
4,4,62|
];
constraint_x8_x3=[
0,0,21|
0,1,9.7|
0,2,42|
0,3,51|
0,4,11|
1,0,52|
1,1,70|
1,2,55|
1,3,5.8|
1,4,73|
2,0,45|
2,1,22|
2,2,53|
2,3,54|
2,4,6.4|
3,0,10|
3,1,64|
3,2,94|
3,3,32|
3,4,35|
4,0,95|
4,1,98|
4,2,16|
4,3,90|
4,4,15|
];
constraint_x8_x5=[
0,0,18|
0,1,92|
0,2,77|
0,3,35|
0,4,4.9|
1,0,66|
1,1,14|
1,2,22|
1,3,43|
1,4,7.8|
2,0,64|
2,1,55|
2,2,55|
2,3,2|
2,4,37|
3,0,99|
3,1,74|
3,2,77|
3,3,64|
3,4,1.9|
4,0,11|
4,1,54|
4,2,51|
4,3,66|
4,4,74|
];
constraint_x8_x7=[
0,0,79|
0,1,41|
0,2,21|
0,3,78|
0,4,27|
1,0,20|
1,1,72|
1,2,42|
1,3,30|
1,4,16|
2,0,96|
2,1,27|
2,2,90|
2,3,53|
2,4,92|
3,0,90|
3,1,31|
3,2,34|
3,3,91|
3,4,76|
4,0,15|
4,1,14|
4,2,57|
4,3,36|
4,4,15|
];
constraint_x9_x1=[
0,0,45|
0,1,45|
0,2,13|
0,3,33|
0,4,61|
1,0,63|
1,1,17|
1,2,43|
1,3,33|
1,4,81|
2,0,29|
2,1,73|
2,2,52|
2,3,34|
2,4,35|
3,0,29|
3,1,51|
3,2,49|
3,3,97|
3,4,94|
4,0,67|
4,1,47|
4,2,72|
4,3,24|
4,4,52|
];
constraint_x9_x4=[
0,0,25|
0,1,98|
0,2,97|
0,3,88|
0,4,7.6|
1,0,92|
1,1,24|
1,2,91|
1,3,79|
1,4,20|
2,0,42|
2,1,36|
2,2,19|
2,3,35|
2,4,79|
3,0,50|
3,1,54|
3,2,6.6|
3,3,14|
3,4,38|
4,0,37|
4,1,1.8|
4,2,77|
4,3,58|
4,4,80|
];
constraint_x9_x6=[
0,0,95|
0,1,98|
0,2,32|
0,3,89|
0,4,9.9|
1,0,43|
1,1,5.6|
1,2,6.4|
1,3,23|
1,4,81|
2,0,11|
2,1,89|
2,2,40|
2,3,39|
2,4,38|
3,0,54|
3,1,55|
3,2,47|
3,3,29|
3,4,99|
4,0,39|
4,1,3.9|
4,2,61|
4,3,47|
4,4,65|
];
constraint_x9_x7=[
0,0,80|
0,1,79|
0,2,46|
0,3,0.33|
0,4,73|
1,0,58|
1,1,50|
1,2,65|
1,3,51|
1,4,17|
2,0,1.7|
2,1,77|
2,2,49|
2,3,87|
2,4,51|
3,0,90|
3,1,12|
3,2,88|
3,3,28|
3,4,93|
4,0,98|
4,1,49|
4,2,95|
4,3,76|
4,4,6|
];
constraint_x10_x1=[
0,0,48|
0,1,14|
0,2,71|
0,3,89|
0,4,77|
1,0,48|
1,1,8|
1,2,22|
1,3,79|
1,4,57|
2,0,9.2|
2,1,68|
2,2,73|
2,3,59|
2,4,34|
3,0,26|
3,1,32|
3,2,94|
3,3,32|
3,4,77|
4,0,12|
4,1,30|
4,2,99|
4,3,4.6|
4,4,94|
];
constraint_x10_x2=[
0,0,22|
0,1,51|
0,2,78|
0,3,88|
0,4,35|
1,0,75|
1,1,88|
1,2,9.1|
1,3,30|
1,4,37|
2,0,64|
2,1,86|
2,2,95|
2,3,29|
2,4,86|
3,0,27|
3,1,15|
3,2,31|
3,3,62|
3,4,95|
4,0,7.7|
4,1,87|
4,2,63|
4,3,42|
4,4,27|
];
constraint_x1_y1=[
0,0,53|
0,1,24|
0,2,7.4|
0,3,60|
0,4,21|
1,0,54|
1,1,28|
1,2,35|
1,3,34|
1,4,4.5|
2,0,62|
2,1,39|
2,2,7.5|
2,3,4.8|
2,4,22|
3,0,78|
3,1,51|
3,2,62|
3,3,77|
3,4,66|
4,0,87|
4,1,72|
4,2,68|
4,3,70|
4,4,40|
];
constraint_x2_y2=[
0,0,84|
0,1,22|
0,2,96|
0,3,30|
0,4,84|
1,0,38|
1,1,34|
1,2,19|
1,3,65|
1,4,64|
2,0,49|
2,1,19|
2,2,43|
2,3,84|
2,4,22|
3,0,34|
3,1,72|
3,2,38|
3,3,81|
3,4,88|
4,0,42|
4,1,43|
4,2,94|
4,3,67|
4,4,97|
];
constraint_x3_y3=[
0,0,41|
0,1,81|
0,2,36|
0,3,33|
0,4,93|
1,0,12|
1,1,33|
1,2,19|
1,3,11|
1,4,94|
2,0,59|
2,1,31|
2,2,24|
2,3,91|
2,4,66|
3,0,30|
3,1,24|
3,2,76|
3,3,31|
3,4,31|
4,0,71|
4,1,89|
4,2,48|
4,3,22|
4,4,24|
];
constraint_x4_y4=[
0,0,66|
0,1,53|
0,2,32|
0,3,32|
0,4,49|
1,0,67|
1,1,95|
1,2,98|
1,3,73|
1,4,31|
2,0,35|
2,1,73|
2,2,70|
2,3,34|
2,4,95|
3,0,87|
3,1,33|
3,2,86|
3,3,23|
3,4,4|
4,0,61|
4,1,34|
4,2,48|
4,3,78|
4,4,80|
];
constraint_x5_y5=[
0,0,98|
0,1,4.6|
0,2,14|
0,3,93|
0,4,30|
1,0,56|
1,1,8.5|
1,2,64|
1,3,97|
1,4,6.6|
2,0,92|
2,1,99|
2,2,99|
2,3,92|
2,4,69|
3,0,78|
3,1,82|
3,2,23|
3,3,4.9|
3,4,80|
4,0,37|
4,1,88|
4,2,47|
4,3,56|
4,4,8|
];
constraint_x6_y6=[
0,0,34|
0,1,94|
0,2,2.6|
0,3,89|
0,4,9.4|
1,0,42|
1,1,41|
1,2,78|
1,3,96|
1,4,2.1|
2,0,76|
2,1,13|
2,2,64|
2,3,58|
2,4,24|
3,0,53|
3,1,15|
3,2,94|
3,3,75|
3,4,88|
4,0,97|
4,1,99|
4,2,73|
4,3,48|
4,4,2.4|
];
constraint_x7_y7=[
0,0,5.3|
0,1,95|
0,2,71|
0,3,22|
0,4,5|
1,0,4|
1,1,86|
1,2,74|
1,3,46|
1,4,96|
2,0,59|
2,1,77|
2,2,22|
2,3,60|
2,4,17|
3,0,77|
3,1,79|
3,2,11|
3,3,1.1|
3,4,26|
4,0,55|
4,1,94|
4,2,70|
4,3,59|
4,4,14|
];
constraint_x8_y8=[
0,0,33|
0,1,50|
0,2,65|
0,3,1.5|
0,4,36|
1,0,28|
1,1,52|
1,2,86|
1,3,58|
1,4,1e+02|
2,0,86|
2,1,77|
2,2,60|
2,3,79|
2,4,93|
3,0,74|
3,1,83|
3,2,57|
3,3,30|
3,4,1.1|
4,0,88|
4,1,5|
4,2,86|
4,3,87|
4,4,25|
];
constraint_x9_y9=[
0,0,73|
0,1,80|
0,2,27|
0,3,26|
0,4,54|
1,0,45|
1,1,37|
1,2,38|
1,3,67|
1,4,66|
2,0,3.1|
2,1,20|
2,2,39|
2,3,1.3|
2,4,75|
3,0,42|
3,1,15|
3,2,89|
3,3,89|
3,4,77|
4,0,77|
4,1,12|
4,2,56|
4,3,95|
4,4,56|
];
constraint_x10_y10=[
0,0,20|
0,1,70|
0,2,25|
0,3,86|
0,4,72|
1,0,74|
1,1,86|
1,2,74|
1,3,34|
1,4,17|
2,0,24|
2,1,59|
2,2,4.8|
2,3,54|
2,4,14|
3,0,78|
3,1,67|
3,2,39|
3,3,21|
3,4,38|
4,0,42|
4,1,82|
4,2,77|
4,3,59|
4,4,16|
];
initial_distribution_y1=[0.25,0.26,0.1,0.17,0.21];
initial_distribution_y2=[0.16,0.29,0.21,0.064,0.28];
initial_distribution_y3=[0.25,0.36,0.15,0.13,0.12];
initial_distribution_y4=[0.26,0.12,0.37,0.2,0.041];
initial_distribution_y5=[0.23,0.23,0.22,0.12,0.2];
initial_distribution_y6=[0.33,0.31,0.28,0.041,0.038];
initial_distribution_y7=[0.21,0.15,0.2,0.33,0.11];
initial_distribution_y8=[0.069,0.22,0.35,0.064,0.29];
initial_distribution_y9=[0.18,0.28,0.35,0.013,0.18];
initial_distribution_y10=[0.25,0.19,0.24,0.13,0.19];
transition_y1=[
0.087,0.19,0.49,0.054,0.18|
0.073,0.35,0.085,0.34,0.15|
0.43,0.16,0.088,0.22,0.095|
0.11,0.25,0.28,0.17,0.19|
0.31,0.088,0.022,0.35,0.24|
];
transition_y2=[
0.061,0.24,0.11,0.25,0.33|
0.24,0.13,0.12,0.29,0.23|
0.23,0.22,0.16,0.095,0.29|
0.099,0.17,0.3,0.22,0.2|
0.11,0.33,0.15,0.31,0.1|
];
transition_y3=[
0.31,0.051,0.11,0.28,0.25|
0.25,0.078,0.19,0.18,0.3|
0.26,0.084,0.025,0.47,0.16|
0.24,0.076,0.41,0.023,0.25|
0.2,0.077,0.4,0.23,0.092|
];
transition_y4=[
0.064,0.26,0.11,0.32,0.25|
0.06,0.16,0.28,0.3,0.2|
0.22,0.064,0.26,0.17,0.28|
0.27,0.23,0.12,0.17,0.21|
0.023,0.16,0.15,0.15,0.51|
];
transition_y5=[
0.1,0.23,0.16,0.4,0.11|
0.27,0.056,0.3,0.29,0.085|
0.024,0.19,0.17,0.22,0.4|
0.087,0.33,0.075,0.43,0.078|
0.3,0.043,0.17,0.25,0.24|
];
transition_y6=[
0.13,0.16,0.32,0.12,0.27|
0.24,0.27,0.095,0.26,0.14|
0.31,0.27,0.29,0.11,0.013|
0.11,0.68,0.03,0.032,0.15|
0.04,0.13,0.3,0.22,0.3|
];
transition_y7=[
0.18,0.094,0.14,0.22,0.37|
0.22,0.21,0.21,0.17,0.2|
0.35,0.087,0.093,0.39,0.076|
0.18,0.15,0.023,0.27,0.38|
0.22,0.31,0.14,0.061,0.26|
];
transition_y8=[
0.39,0.036,0.33,0.15,0.1|
0.038,0.12,0.086,0.38,0.38|
0.2,0.16,0.16,0.26,0.23|
0.31,0.28,0.37,0.01,0.035|
0.3,0.16,0.15,0.35,0.025|
];
transition_y9=[
0.03,0.12,0.19,0.087,0.58|
0.27,0.18,0.35,0.11,0.091|
0.31,0.04,0.22,0.33,0.095|
0.14,0.16,0.24,0.21,0.25|
0.044,0.3,0.28,0.23,0.15|
];
transition_y10=[
0.18,0.28,0.28,0.23,0.04|
0.025,0.21,0.62,0.081,0.058|
0.013,0.2,0.24,0.24,0.3|
0.23,0.17,0.35,0.19,0.062|
0.27,0.33,0.018,0.075,0.3|
];
